(set-info :smt-lib-version 2.6)
(set-info :category "crafted")
(set-logic QF_FF)
(define-sort FF0 () (_ FiniteField 52435875175126190479447740508185965837690552500527637822603658699938581184513))
(declare-fun e () Bool)
(declare-fun c () Bool)
(declare-fun d () Bool)
(declare-fun a () Bool)
(declare-fun b () Bool)
(declare-fun f () Bool)
(declare-fun out () FF0)
(declare-fun _89 () FF0)
(declare-fun _86 () FF0)
(declare-fun _88 () FF0)
(declare-fun _16 () FF0)
(declare-fun _15 () FF0)
(declare-fun _87 () FF0)
(declare-fun _3 () FF0)
(declare-fun _24 () FF0)
(declare-fun _4 () FF0)
(declare-fun _85 () FF0)
(declare-fun _78 () FF0)
(declare-fun _83 () FF0)
(declare-fun _82 () FF0)
(declare-fun _81 () FF0)
(declare-fun _80 () FF0)
(declare-fun _49 () FF0)
(declare-fun _5 () FF0)
(declare-fun _68 () FF0)
(declare-fun _67 () FF0)
(declare-fun _77 () FF0)
(declare-fun _70 () FF0)
(declare-fun _76 () FF0)
(declare-fun _75 () FF0)
(declare-fun _10 () FF0)
(declare-fun _74 () FF0)
(declare-fun _73 () FF0)
(declare-fun _72 () FF0)
(declare-fun _63 () FF0)
(declare-fun _42 () FF0)
(declare-fun _2 () FF0)
(declare-fun _38 () FF0)
(declare-fun _62 () FF0)
(declare-fun _61 () FF0)
(declare-fun _60 () FF0)
(declare-fun _1 () FF0)
(declare-fun _59 () FF0)
(declare-fun _58 () FF0)
(declare-fun _54 () FF0)
(declare-fun _57 () FF0)
(declare-fun _29 () FF0)
(declare-fun _28 () FF0)
(declare-fun _56 () FF0)
(declare-fun _20 () FF0)
(declare-fun _55 () FF0)
(declare-fun _51 () FF0)
(declare-fun _53 () FF0)
(declare-fun _50 () FF0)
(declare-fun _52 () FF0)
(declare-fun _19 () FF0)
(declare-fun _47 () FF0)
(declare-fun _46 () FF0)
(declare-fun _35 () FF0)
(declare-fun _34 () FF0)
(declare-fun _0 () FF0)
(declare-fun _41 () FF0)
(declare-fun _40 () FF0)
(declare-fun _39 () FF0)
(declare-fun _37 () FF0)
(declare-fun _23 () FF0)
(declare-fun _22 () FF0)
(declare-fun _18 () FF0)
(assert 
  (let ((let0 e))
  (let ((let1 (not let0)))
  (let ((let2 (not let1)))
  (let ((let3 (not let2)))
  (let ((let4 c))
  (let ((let5 (not let4)))
  (let ((let6 (or let0 let4)))
  (let ((let7 (not let6)))
  (let ((let8 d))
  (let ((let9 a))
  (let ((let10 b))
  (let ((let11 (ite let10 let9 let8)))
  (let ((let12 (or let9 let4 let11)))
  (let ((let13 (= let12 let7)))
  (let ((let14 (or let1 let6 let13 let1)))
  (let ((let15 f))
  (let ((let16 (ite let15 let1 let10)))
  (let ((let17 (ite let16 let15 let11)))
  (let ((let18 (or let8 let17 let14)))
  (let ((let19 (and let12 let18 let8 let13 let5)))
  (let ((let20 (ite let9 let10 let17)))
  (let ((let21 (=> let20 let17)))
  (let ((let22 (=> let18 let20)))
  (let ((let23 (=> let12 let19)))
  (let ((let24 (or let23 let16 let5 let22)))
  (let ((let25 (and let23 let23 let13 let16 let24 let21 let10 let19 let2 let18)))
  (let ((let26 (ite let4 let25 let19)))
  (let ((let27 (= let7 let25)))
  (let ((let28 (and let21 let7 let2 let2 let7)))
  (let ((let29 (and let27 let28 let27 let26)))
  (let ((let30 (not let29)))
  (let ((let31 (or let15 let21 let1 let14)))
  (let ((let32 (= let31 let14)))
  (let ((let33 (and let32 let30 let3)))
  (let ((let34 (and let14 let8 let11)))
  (let ((let35 (and let34 let33)))
  (let ((let36 out))
  (let ((let37 (as ff1 FF0)))
  (let ((let38 (= let37 let36)))
  (let ((let39 (= let38 let35)))
  (let ((let40 (as ff0 FF0)))
  (let ((let41 (= let40 let36)))
  (let ((let42 (or let38 let41)))
  (let ((let43 (and let42 let39)))
  (let ((let44 _89))
  (let ((let45 _86))
  (let ((let46 _88))
  (let ((let47 (ff.mul let46 let45)))
  (let ((let48 (= let47 let44)))
  (let ((let49 _16))
  (let ((let50 _15))
  (let ((let51 (ff.add let50 let49)))
  (let ((let52 _87))
  (let ((let53 (ff.mul let52 let51)))
  (let ((let54 (= let53 let46)))
  (let ((let55 _3))
  (let ((let56 _24))
  (let ((let57 (ff.mul let56 let55)))
  (let ((let58 (= let57 let52)))
  (let ((let59 (as ff52435875175126190479447740508185965837690552500527637822603658699938581184512 FF0)))
  (let ((let60 _4))
  (let ((let61 (ff.mul let60 let59)))
  (let ((let62 (ff.add let61 let37)))
  (let ((let63 _85))
  (let ((let64 (ff.mul let63 let62)))
  (let ((let65 (= let64 let45)))
  (let ((let66 _78))
  (let ((let67 (ff.mul let66 let59)))
  (let ((let68 (ff.add let67 let37)))
  (let ((let69 _83))
  (let ((let70 (ff.mul let69 let59)))
  (let ((let71 (ff.add let70 let37)))
  (let ((let72 (ff.mul let71 let68)))
  (let ((let73 (= let72 let63)))
  (let ((let74 _82))
  (let ((let75 (ff.mul let56 let59)))
  (let ((let76 (ff.add let75 let74)))
  (let ((let77 (ff.mul let76 let76)))
  (let ((let78 (= let77 let69)))
  (let ((let79 (ff.mul let74 let59)))
  (let ((let80 _81))
  (let ((let81 (ff.add let56 let80 let79)))
  (let ((let82 (ff.mul let80 let56)))
  (let ((let83 (= let82 let81)))
  (let ((let84 (ff.mul let80 let59)))
  (let ((let85 _80))
  (let ((let86 (ff.add let61 let85 let84 let37)))
  (let ((let87 (ff.mul let85 let62)))
  (let ((let88 (= let87 let86)))
  (let ((let89 (ff.mul let85 let59)))
  (let ((let90 _49))
  (let ((let91 _5))
  (let ((let92 (ff.add let91 let90 let89)))
  (let ((let93 (ff.mul let91 let90)))
  (let ((let94 (= let93 let92)))
  (let ((let95 _68))
  (let ((let96 _67))
  (let ((let97 (ff.add let96 let95)))
  (let ((let98 _77))
  (let ((let99 (ff.mul let98 let97)))
  (let ((let100 (= let99 let66)))
  (let ((let101 _70))
  (let ((let102 (ff.mul let101 let59)))
  (let ((let103 (ff.add let102 let37)))
  (let ((let104 _76))
  (let ((let105 (ff.mul let104 let103)))
  (let ((let106 (= let105 let98)))
  (let ((let107 _75))
  (let ((let108 (ff.mul let103 let107)))
  (let ((let109 (= let108 let104)))
  (let ((let110 _10))
  (let ((let111 (ff.mul let110 let59)))
  (let ((let112 (ff.add let111 let37)))
  (let ((let113 _74))
  (let ((let114 (ff.mul let113 let112)))
  (let ((let115 (= let114 let107)))
  (let ((let116 _73))
  (let ((let117 (ff.mul let116 let60)))
  (let ((let118 (= let117 let113)))
  (let ((let119 _72))
  (let ((let120 (ff.mul let119 let60)))
  (let ((let121 (= let120 let116)))
  (let ((let122 (ff.mul let90 let112)))
  (let ((let123 (= let122 let119)))
  (let ((let124 _63))
  (let ((let125 (ff.mul let124 let59)))
  (let ((let126 (ff.add let111 let125 let37)))
  (let ((let127 (ff.mul let126 let126)))
  (let ((let128 (= let127 let101)))
  (let ((let129 _42))
  (let ((let130 _2))
  (let ((let131 (ff.mul let130 let59)))
  (let ((let132 (ff.add let131 let37)))
  (let ((let133 (ff.mul let132 let129)))
  (let ((let134 (= let133 let95)))
  (let ((let135 (ff.mul let130 let124)))
  (let ((let136 (= let135 let96)))
  (let ((let137 _38))
  (let ((let138 _62))
  (let ((let139 (ff.mul let138 let137)))
  (let ((let140 (= let139 let124)))
  (let ((let141 _61))
  (let ((let142 (ff.mul let141 let60)))
  (let ((let143 (= let142 let138)))
  (let ((let144 _60))
  (let ((let145 (ff.mul let144 let129)))
  (let ((let146 (= let145 let141)))
  (let ((let147 _1))
  (let ((let148 _59))
  (let ((let149 (ff.mul let148 let147)))
  (let ((let150 (= let149 let144)))
  (let ((let151 _58))
  (let ((let152 (ff.mul let151 let90)))
  (let ((let153 (= let152 let148)))
  (let ((let154 _54))
  (let ((let155 _57))
  (let ((let156 (ff.mul let155 let154)))
  (let ((let157 (= let156 let151)))
  (let ((let158 _29))
  (let ((let159 _28))
  (let ((let160 (ff.add let159 let158)))
  (let ((let161 _56))
  (let ((let162 (ff.mul let161 let160)))
  (let ((let163 (= let162 let155)))
  (let ((let164 _20))
  (let ((let165 (ff.mul let164 let59)))
  (let ((let166 (ff.add let165 let37)))
  (let ((let167 _55))
  (let ((let168 (ff.mul let167 let166)))
  (let ((let169 (= let168 let161)))
  (let ((let170 _51))
  (let ((let171 (ff.mul let170 let170)))
  (let ((let172 (= let171 let167)))
  (let ((let173 (ff.mul let154 let59)))
  (let ((let174 _53))
  (let ((let175 _50))
  (let ((let176 (ff.add let175 let174 let173)))
  (let ((let177 (ff.mul let174 let175)))
  (let ((let178 (= let177 let176)))
  (let ((let179 (ff.mul let174 let59)))
  (let ((let180 _52))
  (let ((let181 (ff.add let131 let180 let179 let37)))
  (let ((let182 (ff.mul let180 let132)))
  (let ((let183 (= let182 let181)))
  (let ((let184 (ff.mul let180 let59)))
  (let ((let185 (ff.add let159 let158 let170 let184)))
  (let ((let186 (ff.mul let170 let160)))
  (let ((let187 (= let186 let185)))
  (let ((let188 (ff.mul let170 let59)))
  (let ((let189 _19))
  (let ((let190 (ff.mul let189 let59)))
  (let ((let191 (ff.add let190 let129 let188 let37)))
  (let ((let192 (ff.add let190 let37)))
  (let ((let193 (ff.mul let192 let129)))
  (let ((let194 (= let193 let191)))
  (let ((let195 (ff.mul let175 let59)))
  (let ((let196 _47))
  (let ((let197 _46))
  (let ((let198 (ff.mul let137 let59)))
  (let ((let199 (ff.add let198 let197 let196 let195 let37)))
  (let ((let200 (ff.add let197 let196)))
  (let ((let201 (ff.add let198 let37)))
  (let ((let202 (ff.mul let201 let200)))
  (let ((let203 (= let202 let199)))
  (let ((let204 (ff.mul let90 let59)))
  (let ((let205 (ff.mul let196 let59)))
  (let ((let206 (ff.mul let197 let59)))
  (let ((let207 _35))
  (let ((let208 _34))
  (let ((let209 (ff.add let208 let207 let206 let205 let204 let37)))
  (let ((let210 (ff.add let208 let207)))
  (let ((let211 (ff.add let206 let205 let37)))
  (let ((let212 (ff.mul let211 let210)))
  (let ((let213 (= let212 let209)))
  (let ((let214 _0))
  (let ((let215 (ff.mul let214 let59)))
  (let ((let216 (ff.add let215 let37)))
  (let ((let217 (ff.mul let216 let210)))
  (let ((let218 (= let217 let196)))
  (let ((let219 (ff.mul let214 let147)))
  (let ((let220 (= let219 let197)))
  (let ((let221 _41))
  (let ((let222 (ff.mul let221 let132)))
  (let ((let223 (= let222 let129)))
  (let ((let224 _40))
  (let ((let225 (ff.mul let224 let166)))
  (let ((let226 (= let225 let221)))
  (let ((let227 _39))
  (let ((let228 (ff.mul let227 let55)))
  (let ((let229 (= let228 let224)))
  (let ((let230 (ff.mul let189 let137)))
  (let ((let231 (= let230 let227)))
  (let ((let232 _37))
  (let ((let233 (ff.add let56 let232 let198)))
  (let ((let234 (ff.mul let232 let56)))
  (let ((let235 (= let234 let233)))
  (let ((let236 (ff.mul let232 let59)))
  (let ((let237 (ff.add let55 let208 let207 let236)))
  (let ((let238 (ff.mul let55 let210)))
  (let ((let239 (= let238 let237)))
  (let ((let240 (ff.mul let158 let59)))
  (let ((let241 (ff.mul let159 let59)))
  (let ((let242 (ff.add let241 let240 let37)))
  (let ((let243 (ff.mul let242 let51)))
  (let ((let244 (= let243 let207)))
  (let ((let245 (ff.mul let160 let91)))
  (let ((let246 (= let245 let208)))
  (let ((let247 (ff.mul let91 let59)))
  (let ((let248 (ff.add let247 let37)))
  (let ((let249 (ff.mul let248 let147)))
  (let ((let250 (= let249 let158)))
  (let ((let251 (ff.mul let91 let62)))
  (let ((let252 (= let251 let159)))
  (let ((let253 _23))
  (let ((let254 (ff.add let61 let253 let75 let37)))
  (let ((let255 (ff.mul let253 let62)))
  (let ((let256 (= let255 let254)))
  (let ((let257 (ff.mul let253 let59)))
  (let ((let258 _22))
  (let ((let259 (ff.add let165 let258 let257 let37)))
  (let ((let260 (ff.mul let258 let166)))
  (let ((let261 (= let260 let259)))
  (let ((let262 (ff.mul let258 let59)))
  (let ((let263 (ff.add let61 let110 let262 let37)))
  (let ((let264 (ff.mul let62 let110)))
  (let ((let265 (= let264 let263)))
  (let ((let266 (ff.add let110 let189 let59)))
  (let ((let267 (ff.mul let266 let266)))
  (let ((let268 (= let267 let164)))
  (let ((let269 _18))
  (let ((let270 (ff.add let50 let49 let269 let190)))
  (let ((let271 (ff.mul let269 let51)))
  (let ((let272 (= let271 let270)))
  (let ((let273 (ff.mul let269 let59)))
  (let ((let274 (ff.add let214 let130 let273)))
  (let ((let275 (ff.mul let214 let130)))
  (let ((let276 (= let275 let274)))
  (let ((let277 (ff.mul let147 let59)))
  (let ((let278 (ff.add let277 let37)))
  (let ((let279 (ff.mul let278 let55)))
  (let ((let280 (= let279 let49)))
  (let ((let281 (ff.mul let147 let214)))
  (let ((let282 (= let281 let50)))
  (let ((let283 (ff.add let130 let60 let111)))
  (let ((let284 (ff.mul let60 let130)))
  (let ((let285 (= let284 let283)))
  (let ((let286 (ff.mul let91 let91)))
  (let ((let287 (= let286 let91)))
  (let ((let288 (ff.mul let60 let60)))
  (let ((let289 (= let288 let60)))
  (let ((let290 (ff.mul let55 let55)))
  (let ((let291 (= let290 let55)))
  (let ((let292 (ff.mul let130 let130)))
  (let ((let293 (= let292 let130)))
  (let ((let294 (ff.mul let147 let147)))
  (let ((let295 (= let294 let147)))
  (let ((let296 (ff.mul let214 let214)))
  (let ((let297 (= let296 let214)))
  (let ((let298 (and let297 let295 let293 let291 let289 let287 let285 let282 let280 let276 let272 let268 let265 let261 let256 let252 let250 let246 let244 let239 let235 let231 let229 let226 let223 let220 let218 let213 let203 let194 let187 let183 let178 let172 let169 let163 let157 let153 let150 let146 let143 let140 let136 let134 let128 let123 let121 let118 let115 let109 let106 let100 let94 let88 let83 let78 let73 let65 let58 let54 let48)))
  (let ((let299 (ite let15 let37 let40)))
  (let ((let300 (= let91 let299)))
  (let ((let301 (ite let4 let37 let40)))
  (let ((let302 (= let130 let301)))
  (let ((let303 (ite let10 let37 let40)))
  (let ((let304 (= let147 let303)))
  (let ((let305 (ite let0 let37 let40)))
  (let ((let306 (= let60 let305)))
  (let ((let307 (ite let9 let37 let40)))
  (let ((let308 (= let214 let307)))
  (let ((let309 (ite let8 let37 let40)))
  (let ((let310 (= let55 let309)))
  (let ((let311 (and let310 let308 let306 let304 let302 let300)))
  (let ((let312 (and let311 let298)))
  (let ((let313 (=> let312 let43)))
  (let ((let314 (not let313)))
  let314
)))))))))))))))))))))))))))))))))))))))))))))))))))))))))))))))))))))))))))))))))))))))))))))))))))))))))))))))))))))))))))))))))))))))))))))))))))))))))))))))))))))))))))))))))))))))))))))))))))))))))))))))))))))))))))))))))))))))))))))))))))))))))))))))))))))))))))))))))))))))))))))))))))))))))))))))))))))))))))
)
(check-sat)
